Geometry = {
  TypeNames = { "O" "H" }
  TypesAndCoordinates [Bohr] = {
    1    0.00000000    0.00000000    0.22143053
    2    0.00000000    1.43042809   -0.88572213
    2    0.00000000   -1.43042809   -0.88572213
    1    5.55226457    0.00000000   -0.11588694
    2    4.40412541    0.00000000    1.24985180
    2    5.22383152    0.00000000   -1.89948133
  }
}

Driver = {}

Hamiltonian = DFTB {
  SCC = Yes
  SCCTolerance = 1.0e-10
  MaxSCCIterations = 100
  Mixer = Broyden {}
  Charge = 0
  MaxAngularMomentum = {
    O = "p"
    H = "s"
  }
  Filling = Fermi {
    Temperature [Kelvin] = 0.0
  }
  SlaterKosterFiles = Type2FileNames {
    Prefix = "../../slako/mio-1-1/"
    Separator = "-"
    Suffix = ".skf"
  }
  ElectricField = {
    PointCharges = {
      CoordsAndCharges [Bohr] = {
        10.00000000  0.00000000  0.00000000  0.417
      }
      GaussianBlurWidth [Bohr] = 3.78
    }
  }
}

Options = {
  WriteAutotestTag = Yes
}

Analysis = {
  PrintForces = Yes
}

ParserOptions = {
  ParserVersion = 14
}
